(set-info :source  loris-7.ddns.comp.nus.edu.sg/~project/hip/) 
;Variables declarations
(declare-fun bhr_10488 () Int)
(declare-fun bhr_10454 () Int)
(declare-fun nr_10413 () Int)
(declare-fun bhl_10484 () Int)
(declare-fun nr_10486 () Int)
(declare-fun nc () Int)
(declare-fun Anon_10483 () Int)
(declare-fun Anon_20 () Int)
(declare-fun nl_10482 () Int)
(declare-fun nb () Int)
(declare-fun nl_10410 () Int)
(declare-fun nr_10452 () Int)
(declare-fun nl_10448 () Int)
(declare-fun bhl_10450 () Int)
(declare-fun na () Int)
(declare-fun nr_9874 () Int)
(declare-fun nl_9871 () Int)
(declare-fun bhl_9872 () Int)
(declare-fun bhr_9875 () Int)
(declare-fun ha_9876 () Int)
(declare-fun ha_9877 () Int)
(declare-fun bhl_10411 () Int)
(declare-fun bhr_10414 () Int)
(declare-fun ha () Int)
;Relations declarations
;Axioms assertions
;Antecedent
(assert (<= 1 bhl_9872))
(assert (<= 0 nl_9871))
(assert (<= 1 bhr_9875))
(assert (<= 0 nr_9874))
(assert (<= 1 ha_9876))
(assert (<= 1 ha_9877))
(assert (= bhl_10484 bhr_10488))
(assert (= bhr_10488 ha_9877))
(assert (= bhl_10484 ha_9876))
(assert (= bhl_10450 bhr_10454))
(assert (= bhr_10454 bhr_9875))
(assert (= nr_10452 nr_9874))
(assert (= bhl_10450 bhl_9872))
(assert (= nl_10448 nl_9871))
(assert (<= Anon_20 1))
(assert (<= 0 Anon_20))
(assert (<= 0 nb))
(assert (<= 0 nc))
(assert (= nr_10413 (+ (+ nr_10486 1) nl_10482)))
(assert (= bhr_10414 (+ bhl_10484 1)))
(assert (= nr_10486 nc))
(assert (= Anon_10483 Anon_20))
(assert (= nl_10482 nb))
(assert (= nl_10410 (+ (+ nr_10452 1) nl_10448)))
(assert (= bhl_10411 (+ bhl_10450 1)))
(assert (= na (+ (+ nr_9874 1) nl_9871)))
(assert (= bhl_9872 ha))
(assert (= bhr_9875 ha))
(assert (= ha_9876 ha))
(assert (= ha_9877 ha))
(assert (= bhr_10414 bhl_10411))
(assert (= bhr_10414 (+ ha 2)))
;Negation of Consequence
(assert (not false))
(check-sat)